NAME : RC103.1261673.tour
COMMENT : Cost = 0_1261673
COMMENT : Found by LKH [Keld Helsgaun] Wed Sep 13 23:27:15 2017
TYPE : TOUR
DIMENSION : 111
TOUR_SECTION
1
65
21
23
50
20
19
49
22
26
58
108
70
89
54
11
14
17
18
48
103
13
15
16
12
10
88
60
75
87
53
83
91
111
62
43
44
45
41
39
42
73
72
94
95
81
105
34
28
31
33
29
27
30
32
35
102
84
25
24
77
90
64
86
52
92
110
82
40
37
36
38
55
97
107
3
46
2
4
6
9
7
56
69
106
99
61
74
79
80
8
47
5
101
71
109
66
100
98
76
59
78
104
93
96
63
51
68
85
57
67
-1
EOF
